CMPL model generation - running

CMPL version: 1.11.0
Authors: Thomas Schleiff, Mike Steglich
Distributed under the GPLv3 

create model instance ...
write model instance ...
CMPL model generation - finished

Solver - running


Welcome to IBM(R) ILOG(R) CPLEX(R) Interactive Optimizer 12.7.1.0
  with Simplex, Mixed Integer & Barrier Optimizers
5725-A06 5725-A29 5724-Y48 5724-Y49 5724-Y54 5724-Y55 5655-Y21
Copyright IBM Corp. 1988, 2017.  All Rights Reserved.

Type 'help' for a list of available commands.
Type 'help' followed by a command name for more
information on commands.

CPLEX> Specified objective sense: MINIMIZE
Selected objective  name:  line[1]
Selected RHS        name:  RHS
Selected bound      name:  BOUND
Problem '/tmp/cmpl.T15181.mps' read.
Read time = 0.04 sec. (8.25 ticks)
CPLEX> CPXPARAM_Read_APIEncoding                        "UTF-8"
Tried aggregator 3 times.
MIP Presolve eliminated 18392 rows and 29022 columns.
MIP Presolve modified 600 coefficients.
Aggregator did 1415 substitutions.
Reduced MIP has 2548 rows, 4156 columns, and 12164 nonzeros.
Reduced MIP has 3988 binaries, 0 generals, 0 SOSs, and 0 indicators.
Presolve time = 0.05 sec. (45.22 ticks)
Found incumbent of value 3753.615080 after 0.11 sec. (90.05 ticks)
Probing time = 0.01 sec. (2.66 ticks)
Tried aggregator 1 time.
MIP Presolve eliminated 0 rows and 46 columns.
Reduced MIP has 2548 rows, 4110 columns, and 12072 nonzeros.
Reduced MIP has 4110 binaries, 0 generals, 0 SOSs, and 0 indicators.
Presolve time = 0.02 sec. (11.08 ticks)
Probing time = 0.01 sec. (2.82 ticks)
Clique table members: 3538.
MIP emphasis: balance optimality and feasibility.
MIP search method: dynamic search.
Parallel mode: none, using 1 thread.
Root relaxation solution time = 0.03 sec. (22.86 ticks)

        Nodes                                         Cuts/
   Node  Left     Objective  IInf  Best Integer    Best Bound    ItCnt     Gap

*     0+    0                         3753.6151        0.0000           100.00%
*     0     0      integral     0     1751.8655     1751.8655     1286    0.00%
Elapsed time = 0.20 sec. (137.80 ticks, tree = 0.00 MB, solutions = 2)

Root node processing (before b&c):
  Real time             =    0.20 sec. (139.08 ticks)
Sequential b&c:
  Real time             =    0.00 sec. (0.00 ticks)
                          ------------
Total (root+branch&cut) =    0.20 sec. (139.08 ticks)

Solution pool: 2 solutions saved.

MIP - Integer optimal solution:  Objective =  1.7518654760e+03
Solution time =    0.20 sec.  Iterations = 1286  Nodes = 0
Deterministic time = 139.18 ticks  (696.18 ticks/sec)

CPLEX> Incumbent solution written to file '/tmp/cmpl.T15181.gsol'.
CPLEX> 
CMPL: Time used for model generation: 0 seconds
CMPL: Time used for solving the model: 1 seconds


Solution written to ASCII file: results/output_generated/2016-11-07-4/fair-nonlinear.sol

Solver - finished
